SIMON/SIMON48/SIMON5/SIMON1.lp
Minimize
xobj


Subject To
L1_r1 + L8_r1 - v_AfterAnd_1_0 >= 0
L2_r1 + L9_r1 - v_AfterAnd_1_1 >= 0
L3_r1 + L10_r1 - v_AfterAnd_1_2 >= 0
L4_r1 + L11_r1 - v_AfterAnd_1_3 >= 0
L5_r1 + L12_r1 - v_AfterAnd_1_4 >= 0
L6_r1 + L13_r1 - v_AfterAnd_1_5 >= 0
L7_r1 + L14_r1 - v_AfterAnd_1_6 >= 0
L8_r1 + L15_r1 - v_AfterAnd_1_7 >= 0
L9_r1 + L16_r1 - v_AfterAnd_1_8 >= 0
L10_r1 + L17_r1 - v_AfterAnd_1_9 >= 0
L11_r1 + L18_r1 - v_AfterAnd_1_10 >= 0
L12_r1 + L19_r1 - v_AfterAnd_1_11 >= 0
L13_r1 + L20_r1 - v_AfterAnd_1_12 >= 0
L14_r1 + L21_r1 - v_AfterAnd_1_13 >= 0
L15_r1 + L22_r1 - v_AfterAnd_1_14 >= 0
L16_r1 + L23_r1 - v_AfterAnd_1_15 >= 0
L17_r1 + L0_r1 - v_AfterAnd_1_16 >= 0
L18_r1 + L1_r1 - v_AfterAnd_1_17 >= 0
L19_r1 + L2_r1 - v_AfterAnd_1_18 >= 0
L20_r1 + L3_r1 - v_AfterAnd_1_19 >= 0
L21_r1 + L4_r1 - v_AfterAnd_1_20 >= 0
L22_r1 + L5_r1 - v_AfterAnd_1_21 >= 0
L23_r1 + L6_r1 - v_AfterAnd_1_22 >= 0
L0_r1 + L7_r1 - v_AfterAnd_1_23 >= 0
L1_r1 + L8_r1 - S0_r1 >= 0
L1_r1 - S0_r1 <= 0
L8_r1 - S0_r1 <= 0
v_AfterAnd_1_0 - S0_r1 <= 0
L2_r1 + L9_r1 - S1_r1 >= 0
L2_r1 - S1_r1 <= 0
L9_r1 - S1_r1 <= 0
v_AfterAnd_1_1 - S1_r1 <= 0
L3_r1 + L10_r1 - S2_r1 >= 0
L3_r1 - S2_r1 <= 0
L10_r1 - S2_r1 <= 0
v_AfterAnd_1_2 - S2_r1 <= 0
L4_r1 + L11_r1 - S3_r1 >= 0
L4_r1 - S3_r1 <= 0
L11_r1 - S3_r1 <= 0
v_AfterAnd_1_3 - S3_r1 <= 0
L5_r1 + L12_r1 - S4_r1 >= 0
L5_r1 - S4_r1 <= 0
L12_r1 - S4_r1 <= 0
v_AfterAnd_1_4 - S4_r1 <= 0
L6_r1 + L13_r1 - S5_r1 >= 0
L6_r1 - S5_r1 <= 0
L13_r1 - S5_r1 <= 0
v_AfterAnd_1_5 - S5_r1 <= 0
L7_r1 + L14_r1 - S6_r1 >= 0
L7_r1 - S6_r1 <= 0
L14_r1 - S6_r1 <= 0
v_AfterAnd_1_6 - S6_r1 <= 0
L8_r1 + L15_r1 - S7_r1 >= 0
L8_r1 - S7_r1 <= 0
L15_r1 - S7_r1 <= 0
v_AfterAnd_1_7 - S7_r1 <= 0
L9_r1 + L16_r1 - S8_r1 >= 0
L9_r1 - S8_r1 <= 0
L16_r1 - S8_r1 <= 0
v_AfterAnd_1_8 - S8_r1 <= 0
L10_r1 + L17_r1 - S9_r1 >= 0
L10_r1 - S9_r1 <= 0
L17_r1 - S9_r1 <= 0
v_AfterAnd_1_9 - S9_r1 <= 0
L11_r1 + L18_r1 - S10_r1 >= 0
L11_r1 - S10_r1 <= 0
L18_r1 - S10_r1 <= 0
v_AfterAnd_1_10 - S10_r1 <= 0
L12_r1 + L19_r1 - S11_r1 >= 0
L12_r1 - S11_r1 <= 0
L19_r1 - S11_r1 <= 0
v_AfterAnd_1_11 - S11_r1 <= 0
L13_r1 + L20_r1 - S12_r1 >= 0
L13_r1 - S12_r1 <= 0
L20_r1 - S12_r1 <= 0
v_AfterAnd_1_12 - S12_r1 <= 0
L14_r1 + L21_r1 - S13_r1 >= 0
L14_r1 - S13_r1 <= 0
L21_r1 - S13_r1 <= 0
v_AfterAnd_1_13 - S13_r1 <= 0
L15_r1 + L22_r1 - S14_r1 >= 0
L15_r1 - S14_r1 <= 0
L22_r1 - S14_r1 <= 0
v_AfterAnd_1_14 - S14_r1 <= 0
L16_r1 + L23_r1 - S15_r1 >= 0
L16_r1 - S15_r1 <= 0
L23_r1 - S15_r1 <= 0
v_AfterAnd_1_15 - S15_r1 <= 0
L17_r1 + L0_r1 - S16_r1 >= 0
L17_r1 - S16_r1 <= 0
L0_r1 - S16_r1 <= 0
v_AfterAnd_1_16 - S16_r1 <= 0
L18_r1 + L1_r1 - S17_r1 >= 0
L18_r1 - S17_r1 <= 0
L1_r1 - S17_r1 <= 0
v_AfterAnd_1_17 - S17_r1 <= 0
L19_r1 + L2_r1 - S18_r1 >= 0
L19_r1 - S18_r1 <= 0
L2_r1 - S18_r1 <= 0
v_AfterAnd_1_18 - S18_r1 <= 0
L20_r1 + L3_r1 - S19_r1 >= 0
L20_r1 - S19_r1 <= 0
L3_r1 - S19_r1 <= 0
v_AfterAnd_1_19 - S19_r1 <= 0
L21_r1 + L4_r1 - S20_r1 >= 0
L21_r1 - S20_r1 <= 0
L4_r1 - S20_r1 <= 0
v_AfterAnd_1_20 - S20_r1 <= 0
L22_r1 + L5_r1 - S21_r1 >= 0
L22_r1 - S21_r1 <= 0
L5_r1 - S21_r1 <= 0
v_AfterAnd_1_21 - S21_r1 <= 0
L23_r1 + L6_r1 - S22_r1 >= 0
L23_r1 - S22_r1 <= 0
L6_r1 - S22_r1 <= 0
v_AfterAnd_1_22 - S22_r1 <= 0
L0_r1 + L7_r1 - S23_r1 >= 0
L0_r1 - S23_r1 <= 0
L7_r1 - S23_r1 <= 0
v_AfterAnd_1_23 - S23_r1 <= 0
1 R0_r1 - 1 v_AfterAnd_1_0 + 1 L2_r1 + 1 L0_r2 >= 0
-1 R0_r1 - 1 v_AfterAnd_1_0 + 1 L2_r1 - 1 L0_r2 >= - 2
-1 R0_r1 - 1 v_AfterAnd_1_0 - 1 L2_r1 + 1 L0_r2 >= - 2
-1 R0_r1 + 1 v_AfterAnd_1_0 - 1 L2_r1 - 1 L0_r2 >= - 2
-1 R0_r1 + 1 v_AfterAnd_1_0 + 1 L2_r1 + 1 L0_r2 >= 0
1 R0_r1 - 1 v_AfterAnd_1_0 - 1 L2_r1 - 1 L0_r2 >= - 2
1 R0_r1 + 1 v_AfterAnd_1_0 + 1 L2_r1 - 1 L0_r2 >= 0
1 R0_r1 + 1 v_AfterAnd_1_0 - 1 L2_r1 + 1 L0_r2 >= 0
1 R1_r1 - 1 v_AfterAnd_1_1 + 1 L3_r1 + 1 L1_r2 >= 0
-1 R1_r1 - 1 v_AfterAnd_1_1 + 1 L3_r1 - 1 L1_r2 >= - 2
-1 R1_r1 - 1 v_AfterAnd_1_1 - 1 L3_r1 + 1 L1_r2 >= - 2
-1 R1_r1 + 1 v_AfterAnd_1_1 - 1 L3_r1 - 1 L1_r2 >= - 2
-1 R1_r1 + 1 v_AfterAnd_1_1 + 1 L3_r1 + 1 L1_r2 >= 0
1 R1_r1 - 1 v_AfterAnd_1_1 - 1 L3_r1 - 1 L1_r2 >= - 2
1 R1_r1 + 1 v_AfterAnd_1_1 + 1 L3_r1 - 1 L1_r2 >= 0
1 R1_r1 + 1 v_AfterAnd_1_1 - 1 L3_r1 + 1 L1_r2 >= 0
1 R2_r1 - 1 v_AfterAnd_1_2 + 1 L4_r1 + 1 L2_r2 >= 0
-1 R2_r1 - 1 v_AfterAnd_1_2 + 1 L4_r1 - 1 L2_r2 >= - 2
-1 R2_r1 - 1 v_AfterAnd_1_2 - 1 L4_r1 + 1 L2_r2 >= - 2
-1 R2_r1 + 1 v_AfterAnd_1_2 - 1 L4_r1 - 1 L2_r2 >= - 2
-1 R2_r1 + 1 v_AfterAnd_1_2 + 1 L4_r1 + 1 L2_r2 >= 0
1 R2_r1 - 1 v_AfterAnd_1_2 - 1 L4_r1 - 1 L2_r2 >= - 2
1 R2_r1 + 1 v_AfterAnd_1_2 + 1 L4_r1 - 1 L2_r2 >= 0
1 R2_r1 + 1 v_AfterAnd_1_2 - 1 L4_r1 + 1 L2_r2 >= 0
1 R3_r1 - 1 v_AfterAnd_1_3 + 1 L5_r1 + 1 L3_r2 >= 0
-1 R3_r1 - 1 v_AfterAnd_1_3 + 1 L5_r1 - 1 L3_r2 >= - 2
-1 R3_r1 - 1 v_AfterAnd_1_3 - 1 L5_r1 + 1 L3_r2 >= - 2
-1 R3_r1 + 1 v_AfterAnd_1_3 - 1 L5_r1 - 1 L3_r2 >= - 2
-1 R3_r1 + 1 v_AfterAnd_1_3 + 1 L5_r1 + 1 L3_r2 >= 0
1 R3_r1 - 1 v_AfterAnd_1_3 - 1 L5_r1 - 1 L3_r2 >= - 2
1 R3_r1 + 1 v_AfterAnd_1_3 + 1 L5_r1 - 1 L3_r2 >= 0
1 R3_r1 + 1 v_AfterAnd_1_3 - 1 L5_r1 + 1 L3_r2 >= 0
1 R4_r1 - 1 v_AfterAnd_1_4 + 1 L6_r1 + 1 L4_r2 >= 0
-1 R4_r1 - 1 v_AfterAnd_1_4 + 1 L6_r1 - 1 L4_r2 >= - 2
-1 R4_r1 - 1 v_AfterAnd_1_4 - 1 L6_r1 + 1 L4_r2 >= - 2
-1 R4_r1 + 1 v_AfterAnd_1_4 - 1 L6_r1 - 1 L4_r2 >= - 2
-1 R4_r1 + 1 v_AfterAnd_1_4 + 1 L6_r1 + 1 L4_r2 >= 0
1 R4_r1 - 1 v_AfterAnd_1_4 - 1 L6_r1 - 1 L4_r2 >= - 2
1 R4_r1 + 1 v_AfterAnd_1_4 + 1 L6_r1 - 1 L4_r2 >= 0
1 R4_r1 + 1 v_AfterAnd_1_4 - 1 L6_r1 + 1 L4_r2 >= 0
1 R5_r1 - 1 v_AfterAnd_1_5 + 1 L7_r1 + 1 L5_r2 >= 0
-1 R5_r1 - 1 v_AfterAnd_1_5 + 1 L7_r1 - 1 L5_r2 >= - 2
-1 R5_r1 - 1 v_AfterAnd_1_5 - 1 L7_r1 + 1 L5_r2 >= - 2
-1 R5_r1 + 1 v_AfterAnd_1_5 - 1 L7_r1 - 1 L5_r2 >= - 2
-1 R5_r1 + 1 v_AfterAnd_1_5 + 1 L7_r1 + 1 L5_r2 >= 0
1 R5_r1 - 1 v_AfterAnd_1_5 - 1 L7_r1 - 1 L5_r2 >= - 2
1 R5_r1 + 1 v_AfterAnd_1_5 + 1 L7_r1 - 1 L5_r2 >= 0
1 R5_r1 + 1 v_AfterAnd_1_5 - 1 L7_r1 + 1 L5_r2 >= 0
1 R6_r1 - 1 v_AfterAnd_1_6 + 1 L8_r1 + 1 L6_r2 >= 0
-1 R6_r1 - 1 v_AfterAnd_1_6 + 1 L8_r1 - 1 L6_r2 >= - 2
-1 R6_r1 - 1 v_AfterAnd_1_6 - 1 L8_r1 + 1 L6_r2 >= - 2
-1 R6_r1 + 1 v_AfterAnd_1_6 - 1 L8_r1 - 1 L6_r2 >= - 2
-1 R6_r1 + 1 v_AfterAnd_1_6 + 1 L8_r1 + 1 L6_r2 >= 0
1 R6_r1 - 1 v_AfterAnd_1_6 - 1 L8_r1 - 1 L6_r2 >= - 2
1 R6_r1 + 1 v_AfterAnd_1_6 + 1 L8_r1 - 1 L6_r2 >= 0
1 R6_r1 + 1 v_AfterAnd_1_6 - 1 L8_r1 + 1 L6_r2 >= 0
1 R7_r1 - 1 v_AfterAnd_1_7 + 1 L9_r1 + 1 L7_r2 >= 0
-1 R7_r1 - 1 v_AfterAnd_1_7 + 1 L9_r1 - 1 L7_r2 >= - 2
-1 R7_r1 - 1 v_AfterAnd_1_7 - 1 L9_r1 + 1 L7_r2 >= - 2
-1 R7_r1 + 1 v_AfterAnd_1_7 - 1 L9_r1 - 1 L7_r2 >= - 2
-1 R7_r1 + 1 v_AfterAnd_1_7 + 1 L9_r1 + 1 L7_r2 >= 0
1 R7_r1 - 1 v_AfterAnd_1_7 - 1 L9_r1 - 1 L7_r2 >= - 2
1 R7_r1 + 1 v_AfterAnd_1_7 + 1 L9_r1 - 1 L7_r2 >= 0
1 R7_r1 + 1 v_AfterAnd_1_7 - 1 L9_r1 + 1 L7_r2 >= 0
1 R8_r1 - 1 v_AfterAnd_1_8 + 1 L10_r1 + 1 L8_r2 >= 0
-1 R8_r1 - 1 v_AfterAnd_1_8 + 1 L10_r1 - 1 L8_r2 >= - 2
-1 R8_r1 - 1 v_AfterAnd_1_8 - 1 L10_r1 + 1 L8_r2 >= - 2
-1 R8_r1 + 1 v_AfterAnd_1_8 - 1 L10_r1 - 1 L8_r2 >= - 2
-1 R8_r1 + 1 v_AfterAnd_1_8 + 1 L10_r1 + 1 L8_r2 >= 0
1 R8_r1 - 1 v_AfterAnd_1_8 - 1 L10_r1 - 1 L8_r2 >= - 2
1 R8_r1 + 1 v_AfterAnd_1_8 + 1 L10_r1 - 1 L8_r2 >= 0
1 R8_r1 + 1 v_AfterAnd_1_8 - 1 L10_r1 + 1 L8_r2 >= 0
1 R9_r1 - 1 v_AfterAnd_1_9 + 1 L11_r1 + 1 L9_r2 >= 0
-1 R9_r1 - 1 v_AfterAnd_1_9 + 1 L11_r1 - 1 L9_r2 >= - 2
-1 R9_r1 - 1 v_AfterAnd_1_9 - 1 L11_r1 + 1 L9_r2 >= - 2
-1 R9_r1 + 1 v_AfterAnd_1_9 - 1 L11_r1 - 1 L9_r2 >= - 2
-1 R9_r1 + 1 v_AfterAnd_1_9 + 1 L11_r1 + 1 L9_r2 >= 0
1 R9_r1 - 1 v_AfterAnd_1_9 - 1 L11_r1 - 1 L9_r2 >= - 2
1 R9_r1 + 1 v_AfterAnd_1_9 + 1 L11_r1 - 1 L9_r2 >= 0
1 R9_r1 + 1 v_AfterAnd_1_9 - 1 L11_r1 + 1 L9_r2 >= 0
1 R10_r1 - 1 v_AfterAnd_1_10 + 1 L12_r1 + 1 L10_r2 >= 0
-1 R10_r1 - 1 v_AfterAnd_1_10 + 1 L12_r1 - 1 L10_r2 >= - 2
-1 R10_r1 - 1 v_AfterAnd_1_10 - 1 L12_r1 + 1 L10_r2 >= - 2
-1 R10_r1 + 1 v_AfterAnd_1_10 - 1 L12_r1 - 1 L10_r2 >= - 2
-1 R10_r1 + 1 v_AfterAnd_1_10 + 1 L12_r1 + 1 L10_r2 >= 0
1 R10_r1 - 1 v_AfterAnd_1_10 - 1 L12_r1 - 1 L10_r2 >= - 2
1 R10_r1 + 1 v_AfterAnd_1_10 + 1 L12_r1 - 1 L10_r2 >= 0
1 R10_r1 + 1 v_AfterAnd_1_10 - 1 L12_r1 + 1 L10_r2 >= 0
1 R11_r1 - 1 v_AfterAnd_1_11 + 1 L13_r1 + 1 L11_r2 >= 0
-1 R11_r1 - 1 v_AfterAnd_1_11 + 1 L13_r1 - 1 L11_r2 >= - 2
-1 R11_r1 - 1 v_AfterAnd_1_11 - 1 L13_r1 + 1 L11_r2 >= - 2
-1 R11_r1 + 1 v_AfterAnd_1_11 - 1 L13_r1 - 1 L11_r2 >= - 2
-1 R11_r1 + 1 v_AfterAnd_1_11 + 1 L13_r1 + 1 L11_r2 >= 0
1 R11_r1 - 1 v_AfterAnd_1_11 - 1 L13_r1 - 1 L11_r2 >= - 2
1 R11_r1 + 1 v_AfterAnd_1_11 + 1 L13_r1 - 1 L11_r2 >= 0
1 R11_r1 + 1 v_AfterAnd_1_11 - 1 L13_r1 + 1 L11_r2 >= 0
1 R12_r1 - 1 v_AfterAnd_1_12 + 1 L14_r1 + 1 L12_r2 >= 0
-1 R12_r1 - 1 v_AfterAnd_1_12 + 1 L14_r1 - 1 L12_r2 >= - 2
-1 R12_r1 - 1 v_AfterAnd_1_12 - 1 L14_r1 + 1 L12_r2 >= - 2
-1 R12_r1 + 1 v_AfterAnd_1_12 - 1 L14_r1 - 1 L12_r2 >= - 2
-1 R12_r1 + 1 v_AfterAnd_1_12 + 1 L14_r1 + 1 L12_r2 >= 0
1 R12_r1 - 1 v_AfterAnd_1_12 - 1 L14_r1 - 1 L12_r2 >= - 2
1 R12_r1 + 1 v_AfterAnd_1_12 + 1 L14_r1 - 1 L12_r2 >= 0
1 R12_r1 + 1 v_AfterAnd_1_12 - 1 L14_r1 + 1 L12_r2 >= 0
1 R13_r1 - 1 v_AfterAnd_1_13 + 1 L15_r1 + 1 L13_r2 >= 0
-1 R13_r1 - 1 v_AfterAnd_1_13 + 1 L15_r1 - 1 L13_r2 >= - 2
-1 R13_r1 - 1 v_AfterAnd_1_13 - 1 L15_r1 + 1 L13_r2 >= - 2
-1 R13_r1 + 1 v_AfterAnd_1_13 - 1 L15_r1 - 1 L13_r2 >= - 2
-1 R13_r1 + 1 v_AfterAnd_1_13 + 1 L15_r1 + 1 L13_r2 >= 0
1 R13_r1 - 1 v_AfterAnd_1_13 - 1 L15_r1 - 1 L13_r2 >= - 2
1 R13_r1 + 1 v_AfterAnd_1_13 + 1 L15_r1 - 1 L13_r2 >= 0
1 R13_r1 + 1 v_AfterAnd_1_13 - 1 L15_r1 + 1 L13_r2 >= 0
1 R14_r1 - 1 v_AfterAnd_1_14 + 1 L16_r1 + 1 L14_r2 >= 0
-1 R14_r1 - 1 v_AfterAnd_1_14 + 1 L16_r1 - 1 L14_r2 >= - 2
-1 R14_r1 - 1 v_AfterAnd_1_14 - 1 L16_r1 + 1 L14_r2 >= - 2
-1 R14_r1 + 1 v_AfterAnd_1_14 - 1 L16_r1 - 1 L14_r2 >= - 2
-1 R14_r1 + 1 v_AfterAnd_1_14 + 1 L16_r1 + 1 L14_r2 >= 0
1 R14_r1 - 1 v_AfterAnd_1_14 - 1 L16_r1 - 1 L14_r2 >= - 2
1 R14_r1 + 1 v_AfterAnd_1_14 + 1 L16_r1 - 1 L14_r2 >= 0
1 R14_r1 + 1 v_AfterAnd_1_14 - 1 L16_r1 + 1 L14_r2 >= 0
1 R15_r1 - 1 v_AfterAnd_1_15 + 1 L17_r1 + 1 L15_r2 >= 0
-1 R15_r1 - 1 v_AfterAnd_1_15 + 1 L17_r1 - 1 L15_r2 >= - 2
-1 R15_r1 - 1 v_AfterAnd_1_15 - 1 L17_r1 + 1 L15_r2 >= - 2
-1 R15_r1 + 1 v_AfterAnd_1_15 - 1 L17_r1 - 1 L15_r2 >= - 2
-1 R15_r1 + 1 v_AfterAnd_1_15 + 1 L17_r1 + 1 L15_r2 >= 0
1 R15_r1 - 1 v_AfterAnd_1_15 - 1 L17_r1 - 1 L15_r2 >= - 2
1 R15_r1 + 1 v_AfterAnd_1_15 + 1 L17_r1 - 1 L15_r2 >= 0
1 R15_r1 + 1 v_AfterAnd_1_15 - 1 L17_r1 + 1 L15_r2 >= 0
1 R16_r1 - 1 v_AfterAnd_1_16 + 1 L18_r1 + 1 L16_r2 >= 0
-1 R16_r1 - 1 v_AfterAnd_1_16 + 1 L18_r1 - 1 L16_r2 >= - 2
-1 R16_r1 - 1 v_AfterAnd_1_16 - 1 L18_r1 + 1 L16_r2 >= - 2
-1 R16_r1 + 1 v_AfterAnd_1_16 - 1 L18_r1 - 1 L16_r2 >= - 2
-1 R16_r1 + 1 v_AfterAnd_1_16 + 1 L18_r1 + 1 L16_r2 >= 0
1 R16_r1 - 1 v_AfterAnd_1_16 - 1 L18_r1 - 1 L16_r2 >= - 2
1 R16_r1 + 1 v_AfterAnd_1_16 + 1 L18_r1 - 1 L16_r2 >= 0
1 R16_r1 + 1 v_AfterAnd_1_16 - 1 L18_r1 + 1 L16_r2 >= 0
1 R17_r1 - 1 v_AfterAnd_1_17 + 1 L19_r1 + 1 L17_r2 >= 0
-1 R17_r1 - 1 v_AfterAnd_1_17 + 1 L19_r1 - 1 L17_r2 >= - 2
-1 R17_r1 - 1 v_AfterAnd_1_17 - 1 L19_r1 + 1 L17_r2 >= - 2
-1 R17_r1 + 1 v_AfterAnd_1_17 - 1 L19_r1 - 1 L17_r2 >= - 2
-1 R17_r1 + 1 v_AfterAnd_1_17 + 1 L19_r1 + 1 L17_r2 >= 0
1 R17_r1 - 1 v_AfterAnd_1_17 - 1 L19_r1 - 1 L17_r2 >= - 2
1 R17_r1 + 1 v_AfterAnd_1_17 + 1 L19_r1 - 1 L17_r2 >= 0
1 R17_r1 + 1 v_AfterAnd_1_17 - 1 L19_r1 + 1 L17_r2 >= 0
1 R18_r1 - 1 v_AfterAnd_1_18 + 1 L20_r1 + 1 L18_r2 >= 0
-1 R18_r1 - 1 v_AfterAnd_1_18 + 1 L20_r1 - 1 L18_r2 >= - 2
-1 R18_r1 - 1 v_AfterAnd_1_18 - 1 L20_r1 + 1 L18_r2 >= - 2
-1 R18_r1 + 1 v_AfterAnd_1_18 - 1 L20_r1 - 1 L18_r2 >= - 2
-1 R18_r1 + 1 v_AfterAnd_1_18 + 1 L20_r1 + 1 L18_r2 >= 0
1 R18_r1 - 1 v_AfterAnd_1_18 - 1 L20_r1 - 1 L18_r2 >= - 2
1 R18_r1 + 1 v_AfterAnd_1_18 + 1 L20_r1 - 1 L18_r2 >= 0
1 R18_r1 + 1 v_AfterAnd_1_18 - 1 L20_r1 + 1 L18_r2 >= 0
1 R19_r1 - 1 v_AfterAnd_1_19 + 1 L21_r1 + 1 L19_r2 >= 0
-1 R19_r1 - 1 v_AfterAnd_1_19 + 1 L21_r1 - 1 L19_r2 >= - 2
-1 R19_r1 - 1 v_AfterAnd_1_19 - 1 L21_r1 + 1 L19_r2 >= - 2
-1 R19_r1 + 1 v_AfterAnd_1_19 - 1 L21_r1 - 1 L19_r2 >= - 2
-1 R19_r1 + 1 v_AfterAnd_1_19 + 1 L21_r1 + 1 L19_r2 >= 0
1 R19_r1 - 1 v_AfterAnd_1_19 - 1 L21_r1 - 1 L19_r2 >= - 2
1 R19_r1 + 1 v_AfterAnd_1_19 + 1 L21_r1 - 1 L19_r2 >= 0
1 R19_r1 + 1 v_AfterAnd_1_19 - 1 L21_r1 + 1 L19_r2 >= 0
1 R20_r1 - 1 v_AfterAnd_1_20 + 1 L22_r1 + 1 L20_r2 >= 0
-1 R20_r1 - 1 v_AfterAnd_1_20 + 1 L22_r1 - 1 L20_r2 >= - 2
-1 R20_r1 - 1 v_AfterAnd_1_20 - 1 L22_r1 + 1 L20_r2 >= - 2
-1 R20_r1 + 1 v_AfterAnd_1_20 - 1 L22_r1 - 1 L20_r2 >= - 2
-1 R20_r1 + 1 v_AfterAnd_1_20 + 1 L22_r1 + 1 L20_r2 >= 0
1 R20_r1 - 1 v_AfterAnd_1_20 - 1 L22_r1 - 1 L20_r2 >= - 2
1 R20_r1 + 1 v_AfterAnd_1_20 + 1 L22_r1 - 1 L20_r2 >= 0
1 R20_r1 + 1 v_AfterAnd_1_20 - 1 L22_r1 + 1 L20_r2 >= 0
1 R21_r1 - 1 v_AfterAnd_1_21 + 1 L23_r1 + 1 L21_r2 >= 0
-1 R21_r1 - 1 v_AfterAnd_1_21 + 1 L23_r1 - 1 L21_r2 >= - 2
-1 R21_r1 - 1 v_AfterAnd_1_21 - 1 L23_r1 + 1 L21_r2 >= - 2
-1 R21_r1 + 1 v_AfterAnd_1_21 - 1 L23_r1 - 1 L21_r2 >= - 2
-1 R21_r1 + 1 v_AfterAnd_1_21 + 1 L23_r1 + 1 L21_r2 >= 0
1 R21_r1 - 1 v_AfterAnd_1_21 - 1 L23_r1 - 1 L21_r2 >= - 2
1 R21_r1 + 1 v_AfterAnd_1_21 + 1 L23_r1 - 1 L21_r2 >= 0
1 R21_r1 + 1 v_AfterAnd_1_21 - 1 L23_r1 + 1 L21_r2 >= 0
1 R22_r1 - 1 v_AfterAnd_1_22 + 1 L0_r1 + 1 L22_r2 >= 0
-1 R22_r1 - 1 v_AfterAnd_1_22 + 1 L0_r1 - 1 L22_r2 >= - 2
-1 R22_r1 - 1 v_AfterAnd_1_22 - 1 L0_r1 + 1 L22_r2 >= - 2
-1 R22_r1 + 1 v_AfterAnd_1_22 - 1 L0_r1 - 1 L22_r2 >= - 2
-1 R22_r1 + 1 v_AfterAnd_1_22 + 1 L0_r1 + 1 L22_r2 >= 0
1 R22_r1 - 1 v_AfterAnd_1_22 - 1 L0_r1 - 1 L22_r2 >= - 2
1 R22_r1 + 1 v_AfterAnd_1_22 + 1 L0_r1 - 1 L22_r2 >= 0
1 R22_r1 + 1 v_AfterAnd_1_22 - 1 L0_r1 + 1 L22_r2 >= 0
1 R23_r1 - 1 v_AfterAnd_1_23 + 1 L1_r1 + 1 L23_r2 >= 0
-1 R23_r1 - 1 v_AfterAnd_1_23 + 1 L1_r1 - 1 L23_r2 >= - 2
-1 R23_r1 - 1 v_AfterAnd_1_23 - 1 L1_r1 + 1 L23_r2 >= - 2
-1 R23_r1 + 1 v_AfterAnd_1_23 - 1 L1_r1 - 1 L23_r2 >= - 2
-1 R23_r1 + 1 v_AfterAnd_1_23 + 1 L1_r1 + 1 L23_r2 >= 0
1 R23_r1 - 1 v_AfterAnd_1_23 - 1 L1_r1 - 1 L23_r2 >= - 2
1 R23_r1 + 1 v_AfterAnd_1_23 + 1 L1_r1 - 1 L23_r2 >= 0
1 R23_r1 + 1 v_AfterAnd_1_23 - 1 L1_r1 + 1 L23_r2 >= 0
L0_r1 - R0_r2 = 0
L1_r1 - R1_r2 = 0
L2_r1 - R2_r2 = 0
L3_r1 - R3_r2 = 0
L4_r1 - R4_r2 = 0
L5_r1 - R5_r2 = 0
L6_r1 - R6_r2 = 0
L7_r1 - R7_r2 = 0
L8_r1 - R8_r2 = 0
L9_r1 - R9_r2 = 0
L10_r1 - R10_r2 = 0
L11_r1 - R11_r2 = 0
L12_r1 - R12_r2 = 0
L13_r1 - R13_r2 = 0
L14_r1 - R14_r2 = 0
L15_r1 - R15_r2 = 0
L16_r1 - R16_r2 = 0
L17_r1 - R17_r2 = 0
L18_r1 - R18_r2 = 0
L19_r1 - R19_r2 = 0
L20_r1 - R20_r2 = 0
L21_r1 - R21_r2 = 0
L22_r1 - R22_r2 = 0
L23_r1 - R23_r2 = 0
L0_r1 + L1_r1 + L2_r1 + L3_r1 + L4_r1 + L5_r1 + L6_r1 + L7_r1 + L8_r1 + L9_r1 + L10_r1 + L11_r1 + L12_r1 + L13_r1 + L14_r1 + L15_r1 + L16_r1 + L17_r1 + L18_r1 + L19_r1 + L20_r1 + L21_r1 + L22_r1 + L23_r1 + R0_r1 + R1_r1 + R2_r1 + R3_r1 + R4_r1 + R5_r1 + R6_r1 + R7_r1 + R8_r1 + R9_r1 + R10_r1 + R11_r1 + R12_r1 + R13_r1 + R14_r1 + R15_r1 + R16_r1 + R17_r1 + R18_r1 + R19_r1 + R20_r1 + R21_r1 + R22_r1 + R23_r1 >= 1
S0_r1 + S1_r1 + S2_r1 + S3_r1 + S4_r1 + S5_r1 + S6_r1 + S7_r1 + S8_r1 + S9_r1 + S10_r1 + S11_r1 + S12_r1 + S13_r1 + S14_r1 + S15_r1 + S16_r1 + S17_r1 + S18_r1 + S19_r1 + S20_r1 + S21_r1 + S22_r1 + S23_r1 - xobj = 0
S0_r1 + S1_r1 + S2_r1 + S3_r1 + S4_r1 + S5_r1 + S6_r1 + S7_r1 + S8_r1 + S9_r1 + S10_r1 + S11_r1 + S12_r1 + S13_r1 + S14_r1 + S15_r1 + S16_r1 + S17_r1 + S18_r1 + S19_r1 + S20_r1 + S21_r1 + S22_r1 + S23_r1 - xobj <= -44
S0_r1 + S1_r1 + S2_r1 + S3_r1 + S4_r1 + S5_r1 + S6_r1 + S7_r1 + S8_r1 + S9_r1 + S10_r1 + S11_r1 + S12_r1 + S13_r1 + S14_r1 + S15_r1 + S16_r1 + S17_r1 + S18_r1 + S19_r1 + S20_r1 + S21_r1 + S22_r1 + S23_r1 - xobj <= -44


Generals
xobj


Binary
v_AfterAnd_1_2
L22_r1
v_AfterAnd_1_17
R15_r2
R19_r2
L4_r2
v_AfterAnd_1_19
S12_r1
S0_r1
L19_r1
L0_r2
L22_r2
v_AfterAnd_1_4
S15_r1
L7_r2
R7_r2
L4_r1
L5_r2
R22_r1
R16_r2
S2_r1
R13_r2
S10_r1
R8_r1
L15_r1
L19_r2
S19_r1
R9_r2
L16_r2
R6_r1
v_AfterAnd_1_12
L18_r2
S11_r1
L10_r1
L8_r2
L3_r1
S7_r1
S8_r1
S21_r1
L21_r1
L14_r1
R8_r2
R21_r2
L8_r1
R23_r1
R11_r2
R4_r1
L17_r2
R19_r1
L0_r1
L9_r1
v_AfterAnd_1_3
S3_r1
L12_r1
v_AfterAnd_1_5
v_AfterAnd_1_9
v_AfterAnd_1_10
R14_r1
R10_r2
R21_r1
L18_r1
L3_r2
S13_r1
L7_r1
L10_r2
v_AfterAnd_1_11
v_AfterAnd_1_15
S4_r1
v_AfterAnd_1_7
L23_r1
L20_r2
L23_r2
L6_r1
S1_r1
R15_r1
R3_r2
L13_r1
S18_r1
L2_r1
R20_r1
S6_r1
L12_r2
L1_r2
L2_r2
S20_r1
R10_r1
R13_r1
R5_r2
R12_r2
L14_r2
R18_r2
L1_r1
v_AfterAnd_1_21
R17_r2
v_AfterAnd_1_14
v_AfterAnd_1_16
L13_r2
R23_r2
R12_r1
v_AfterAnd_1_23
L5_r1
S9_r1
R4_r2
R0_r1
S17_r1
L15_r2
R16_r1
R2_r1
L6_r2
S14_r1
S23_r1
R0_r2
R6_r2
v_AfterAnd_1_8
L16_r1
R7_r1
L11_r1
v_AfterAnd_1_20
L21_r2
L11_r2
R9_r1
R5_r1
L9_r2
v_AfterAnd_1_6
S22_r1
L17_r1
v_AfterAnd_1_0
R17_r1
S16_r1
S5_r1
v_AfterAnd_1_22
R14_r2
R1_r1
R1_r2
v_AfterAnd_1_1
v_AfterAnd_1_13
R20_r2
R18_r1
v_AfterAnd_1_18
R11_r1
R2_r2
R22_r2
L20_r1
R3_r1
